TOUR_SECTION
195
113
151
28
45
146
140
162
62
35
134
70
199
13
33
114
150
93
31
143
85
68
103
38
123
66
165
91
80
81
14
136
99
21
41
42
65
58
181
71
178
166
44
15
197
4
186
79
115
55
75
119
170
149
54
84
159
184
95
129
36
2
52
147
96
117
182
5
53
63
194
106
192
7
193
18
156
30
16
189
37
100
152
138
86
48
179
174
127
133
92
154
187
39
164
3
125
183
24
126
198
132
61
51
83
112
101
6
111
116
90
74
20
56
46
11
40
43
19
172
57
17
144
87
173
120
200
118
72
110
8
135
9
137
50
97
60
67
22
160
180
1
59
88
145
196
153
29
176
122
163
82
168
161
148
171
49
109
34
27
190
177
121
102
104
175
25
77
155
32
64
89
139
107
185
47
188
26
158
12
69
23
76
105
108
124
98
10
73
131
94
142
130
78
141
167
169
191
128
157
-1
EOF